colors = 11; %optimal value = 11
n = 74;
e = 602;
start = [1,1,1,1,1,1,1,1,1,1,1,1,1,1,1,1,1,1,2,2,2,2,2,2,2,2,2,3,3,3,3,4,4,4,4,4,4,4,4,4,4,4,4,4,4,4,4,4,4,4,4,4,4,4,4,4,5,5,5,5,5,5,5,5,5,5,6,6,6,6,6,6,6,6,7,8,8,8,8,8,8,8,9,9,9,9,9,9,9,9,9,9,9,9,9,9,9,9,9,9,10,10,10,10,10,11,11,11,11,11,11,11,11,11,11,12,12,12,12,12,12,12,12,12,13,13,13,13,13,13,13,13,13,13,14,14,14,14,14,14,14,15,15,16,16,17,17,17,17,17,17,17,17,17,17,18,18,18,18,18,18,18,18,18,18,19,19,19,19,19,19,19,19,19,20,20,20,20,20,20,20,20,21,21,21,21,21,21,21,21,22,22,22,22,22,22,22,22,22,22,22,22,22,22,22,22,23,23,23,23,23,23,23,23,23,24,24,24,24,25,25,25,25,25,25,25,25,25,25,26,27,27,27,27,27,27,27,27,27,27,28,29,29,29,29,29,29,29,29,29,29,30,30,30,31,31,31,31,31,31,31,31,31,32,32,33,34,34,34,34,34,34,34,34,35,35,36,36,36,36,37,37,38,38,38,38,38,38,38,39,39,39,39,39,39,39,39,40,40,40,40,40,40,40,40,40,40,41,41,41,41,41,41,41,41,41,41,41,41,41,41,41,41,41,41,41,41,42,42,42,43,43,43,43,43,43,43,43,43,43,44,44,44,44,44,44,44,44,44,44,44,45,45,46,46,46,46,46,46,47,47,47,47,47,47,47,47,47,48,48,49,49,49,49,49,49,49,49,49,49,49,49,49,49,49,49,49,49,49,50,50,50,50,50,50,50,50,50,50,51,51,51,51,51,52,52,52,52,52,52,52,52,52,52,53,53,53,53,54,55,55,55,55,55,55,55,55,55,55,55,55,55,55,55,55,55,55,55,55,55,55,55,55,55,55,55,55,55,55,55,55,55,55,55,55,55,55,55,55,55,55,55,55,55,55,55,55,55,55,55,55,55,56,56,56,56,56,56,56,56,56,57,57,57,57,57,57,57,57,57,57,57,57,57,57,57,57,57,57,57,57,58,58,59,59,59,59,59,59,59,59,59,59,60,60,60,60,60,60,60,60,60,60,61,62,62,62,62,62,62,62,62,62,62,63,63,63,64,64,64,64,64,64,64,64,65,65,66,66,66,67,67,67,67,67,67,67,67,67,68,68,68,68,68,68,68,68,68,69,69,69,69,69,69,70,71,71,71,72,72,72,72,72,72,73,73,73,73,73,73,73,73,73,73,73,73,73,74,74,74,74,74];
end = [44,4,69,59,13,29,40,11,50,5,25,10,63,22,9,55,72,49,46,55,62,4,74,43,51,57,41,53,52,55,9,69,1,9,22,49,63,68,60,19,56,27,46,55,2,73,43,62,47,67,12,57,32,71,45,41,59,13,29,40,11,50,25,49,1,55,64,23,21,17,34,39,20,55,70,14,44,9,52,38,31,18,69,4,72,10,66,1,49,8,14,44,38,31,18,3,53,52,22,55,72,1,49,55,9,59,13,29,40,50,5,25,49,1,55,55,73,43,62,4,47,67,57,41,59,29,40,11,50,5,25,49,1,55,8,44,9,52,38,31,18,22,55,65,55,28,30,64,23,21,6,34,39,20,55,22,8,14,44,9,52,38,24,31,55,68,55,60,73,4,56,27,57,41,64,23,21,17,6,34,39,55,64,23,17,6,34,39,20,55,18,44,69,49,4,66,63,1,61,26,57,41,15,42,55,9,30,64,21,17,6,34,39,20,55,18,31,42,55,59,13,29,40,11,50,5,49,1,55,22,68,55,60,19,73,57,41,4,56,62,17,59,13,40,11,50,5,25,49,1,55,23,55,17,8,14,44,9,52,38,24,18,55,4,71,49,64,23,21,17,6,39,20,55,48,58,60,55,57,41,72,49,8,14,44,9,52,31,18,64,23,21,17,6,34,20,55,59,13,29,11,50,5,25,49,1,55,68,60,19,73,56,27,46,2,74,43,51,62,47,67,12,36,4,57,22,55,22,55,24,47,67,12,73,4,2,74,51,57,41,22,1,55,49,8,14,9,52,38,31,18,4,71,55,62,4,57,41,2,55,73,43,62,4,67,12,57,41,35,58,44,22,69,59,13,29,40,11,50,5,25,4,33,10,9,37,1,55,72,59,13,29,40,11,5,25,49,1,55,2,74,43,57,41,8,14,44,38,31,18,3,53,55,9,3,52,55,9,55,44,59,13,29,40,11,50,5,25,69,10,66,1,72,49,68,60,19,73,56,27,46,4,2,62,47,67,12,36,57,41,15,30,64,23,21,17,6,34,39,20,65,16,54,18,31,3,53,52,22,42,24,9,68,55,60,19,73,57,41,4,27,68,60,19,73,56,27,46,2,74,43,51,62,47,67,12,36,4,41,22,55,35,48,13,29,40,11,50,5,25,49,1,55,36,68,55,19,73,4,56,27,57,41,22,46,2,55,4,47,67,12,57,41,27,4,1,22,23,21,17,6,34,39,20,55,16,55,22,55,9,55,73,43,62,4,47,12,57,41,55,60,19,73,4,56,27,57,41,4,22,9,1,49,55,7,32,4,45,10,9,37,1,55,49,68,55,60,19,56,27,57,41,47,67,12,43,4,2,43,51,57,41];